decision_x1=[0,4];
decision_x2=[0,4];
decision_x3=[0,4];
decision_x4=[0,4];
decision_x5=[0,4];
decision_x6=[0,4];
decision_x7=[0,4];
decision_x8=[0,4];
decision_x9=[0,4];
decision_x10=[0,4];
decision_x11=[0,4];
decision_x12=[0,4];
decision_x13=[0,4];
decision_x14=[0,4];
random_y1=[0,4];
random_y2=[0,4];
random_y3=[0,4];
random_y4=[0,4];
random_y5=[0,4];
random_y6=[0,4];
random_y7=[0,4];
constraint_x3_x2=[
0,1,3.3|
0,2,0.42|
0,3,0.98|
0,4,2.7|
1,0,0.82|
1,2,7|
1,3,4.4|
1,4,1.3|
2,0,6.9|
2,1,5.7|
2,3,4.8|
2,4,2.2|
3,0,5.2|
3,1,0.33|
3,2,1.8|
3,4,8.6|
4,0,5.8|
4,1,2.5|
4,2,5.6|
4,3,4.7|
];
constraint_x4_x1=[
0,1,1.4|
0,2,1.2|
0,3,4.8|
0,4,1.7|
1,0,8.1|
1,2,3.2|
1,3,5.8|
1,4,9.3|
2,0,0.76|
2,1,6.4|
2,3,4.8|
2,4,8.6|
3,0,7.6|
3,1,9|
3,2,4.8|
3,4,4.5|
4,0,3.2|
4,1,2|
4,2,3.9|
4,3,5.6|
];
constraint_x4_x2=[
0,1,2.7|
0,2,2.5|
0,3,9.9|
0,4,2.6|
1,0,9.2|
1,2,6.8|
1,3,4.1|
1,4,8.1|
2,0,9.6|
2,1,8.2|
2,3,7.3|
2,4,4.3|
3,0,8.2|
3,1,7.7|
3,2,3|
3,4,0.32|
4,0,1.3|
4,1,3.6|
4,2,7|
4,3,2.7|
];
constraint_x5_x1=[
0,1,6|
0,2,8.7|
0,3,0.51|
0,4,2.3|
1,0,9.1|
1,2,9.6|
1,3,0.21|
1,4,2|
2,0,9.5|
2,1,0.22|
2,3,3.9|
2,4,3.8|
3,0,3.2|
3,1,0.39|
3,2,2.5|
3,4,4.1|
4,0,2.7|
4,1,7.1|
4,2,3.5|
4,3,5.2|
];
constraint_x5_x3=[
0,1,2.7|
0,2,7.1|
0,3,8.6|
0,4,5.7|
1,0,7.4|
1,2,7.2|
1,3,4|
1,4,3.1|
2,0,0.64|
2,1,8.4|
2,3,4.6|
2,4,7.1|
3,0,9.6|
3,1,2.1|
3,2,9.9|
3,4,4.4|
4,0,0.022|
4,1,10|
4,2,5.9|
4,3,7.5|
];
constraint_x5_x4=[
0,1,4|
0,2,7.7|
0,3,6.8|
0,4,8.3|
1,0,7.7|
1,2,3.7|
1,3,0.62|
1,4,1.2|
2,0,2.4|
2,1,7|
2,3,7.4|
2,4,2.3|
3,0,9.3|
3,1,0.18|
3,2,2.6|
3,4,7.9|
4,0,9|
4,1,5.2|
4,2,0.83|
4,3,6.9|
];
constraint_x6_x1=[
0,1,2.9|
0,2,6.1|
0,3,7.3|
0,4,5.7|
1,0,4.1|
1,2,8.8|
1,3,1.6|
1,4,8|
2,0,1.2|
2,1,7|
2,3,5.1|
2,4,3.9|
3,0,0.45|
3,1,0.31|
3,2,4.9|
3,4,1.2|
4,0,8.2|
4,1,5.8|
4,2,1.1|
4,3,3|
];
constraint_x6_x2=[
0,1,3.7|
0,2,6.1|
0,3,1.3|
0,4,9.2|
1,0,6.3|
1,2,2.1|
1,3,8.8|
1,4,8.1|
2,0,8|
2,1,2.4|
2,3,5.8|
2,4,1.3|
3,0,9.8|
3,1,5.2|
3,2,7.1|
3,4,3.6|
4,0,2.9|
4,1,8.6|
4,2,4.6|
4,3,7|
];
constraint_x6_x5=[
0,1,4|
0,2,9.5|
0,3,9.1|
0,4,4.1|
1,0,5.2|
1,2,6|
1,3,9.1|
1,4,6|
2,0,0.59|
2,1,3.3|
2,3,9.8|
2,4,1.3|
3,0,8|
3,1,8.6|
3,2,5.8|
3,4,0.18|
4,0,6.4|
4,1,1.3|
4,2,7.7|
4,3,9.1|
];
constraint_x7_x1=[
0,1,7.4|
0,2,6.7|
0,3,9.9|
0,4,3.3|
1,0,9.9|
1,2,6.4|
1,3,5.6|
1,4,3.5|
2,0,0.14|
2,1,9.3|
2,3,9.2|
2,4,2.3|
3,0,2.7|
3,1,8|
3,2,7.1|
3,4,1|
4,0,4.8|
4,1,5.1|
4,2,2.5|
4,3,8.6|
];
constraint_x7_x2=[
0,1,5.3|
0,2,6.8|
0,3,5.5|
0,4,4.9|
1,0,7.1|
1,2,1.2|
1,3,1.3|
1,4,2.6|
2,0,0.13|
2,1,7.5|
2,3,4.8|
2,4,9.7|
3,0,3|
3,1,1.2|
3,2,1.1|
3,4,8.5|
4,0,9.4|
4,1,4.8|
4,2,8.9|
4,3,0.24|
];
constraint_x7_x5=[
0,1,4.4|
0,2,7.1|
0,3,0.26|
0,4,6.3|
1,0,2.8|
1,2,2.2|
1,3,10|
1,4,9.6|
2,0,3|
2,1,0.3|
2,3,6.4|
2,4,6.8|
3,0,1.3|
3,1,7|
3,2,3.2|
3,4,2.1|
4,0,5.9|
4,1,5.7|
4,2,5.8|
4,3,4|
];
constraint_x8_x4=[
0,1,5.2|
0,2,5.3|
0,3,6.9|
0,4,3.1|
1,0,0.87|
1,2,7.2|
1,3,1.2|
1,4,7.9|
2,0,6.3|
2,1,5.2|
2,3,5.1|
2,4,9.2|
3,0,2.5|
3,1,4.3|
3,2,6|
3,4,2.9|
4,0,4.3|
4,1,2.5|
4,2,0.81|
4,3,5.4|
];
constraint_x8_x5=[
0,1,4.5|
0,2,7.2|
0,3,8.1|
0,4,3|
1,0,9.7|
1,2,6.9|
1,3,6.9|
1,4,5.5|
2,0,4.7|
2,1,3.4|
2,3,4.6|
2,4,3.7|
3,0,0.016|
3,1,3.1|
3,2,3.3|
3,4,8.1|
4,0,1.4|
4,1,8.2|
4,2,2.5|
4,3,9.2|
];
constraint_x8_x7=[
0,1,7.8|
0,2,9.5|
0,3,9.3|
0,4,7.9|
1,0,0.089|
1,2,7|
1,3,4.7|
1,4,7.8|
2,0,6.7|
2,1,7.5|
2,3,9.3|
2,4,2.9|
3,0,1|
3,1,0.64|
3,2,9.6|
3,4,2.9|
4,0,2.8|
4,1,1.2|
4,2,8.6|
4,3,7|
];
constraint_x9_x2=[
0,1,4.2|
0,2,9.8|
0,3,0.16|
0,4,8.3|
1,0,6.5|
1,2,6|
1,3,1.9|
1,4,7.1|
2,0,3.9|
2,1,2|
2,3,9.5|
2,4,2.5|
3,0,6.8|
3,1,7.4|
3,2,8.9|
3,4,4.8|
4,0,1.4|
4,1,2.5|
4,2,8.9|
4,3,9.4|
];
constraint_x9_x3=[
0,1,4.3|
0,2,2.9|
0,3,2.9|
0,4,2.1|
1,0,7.7|
1,2,7.5|
1,3,1.1|
1,4,7.4|
2,0,8.5|
2,1,2.9|
2,3,4.7|
2,4,4.7|
3,0,2.1|
3,1,9.4|
3,2,6.1|
3,4,3.3|
4,0,2.2|
4,1,1.2|
4,2,3.1|
4,3,5|
];
constraint_x9_x6=[
0,1,1.2|
0,2,6.7|
0,3,2.1|
0,4,3.2|
1,0,0.41|
1,2,2.3|
1,3,7|
1,4,5.3|
2,0,3.2|
2,1,9.3|
2,3,4.1|
2,4,9.1|
3,0,4.8|
3,1,8.1|
3,2,3|
3,4,5.2|
4,0,2.8|
4,1,9.5|
4,2,5.8|
4,3,7.6|
];
constraint_x10_x4=[
0,1,0.91|
0,2,4.6|
0,3,0.11|
0,4,9.3|
1,0,5.6|
1,2,0.41|
1,3,2.3|
1,4,2.1|
2,0,4.6|
2,1,4.4|
2,3,7.2|
2,4,7.8|
3,0,8.6|
3,1,7.1|
3,2,2.6|
3,4,1.6|
4,0,4.4|
4,1,3|
4,2,1.1|
4,3,4.5|
];
constraint_x11_x3=[
0,1,2|
0,2,9|
0,3,3.3|
0,4,7.4|
1,0,5.7|
1,2,9|
1,3,3.2|
1,4,7.8|
2,0,9.2|
2,1,2.5|
2,3,7.6|
2,4,7.8|
3,0,2.5|
3,1,6.1|
3,2,5.9|
3,4,3.3|
4,0,1.2|
4,1,3.2|
4,2,6|
4,3,7.2|
];
constraint_x11_x6=[
0,1,4.9|
0,2,0.14|
0,3,5.6|
0,4,8.2|
1,0,2.1|
1,2,1.3|
1,3,4|
1,4,7.8|
2,0,3.8|
2,1,2.6|
2,3,2.2|
2,4,3.5|
3,0,1.8|
3,1,2.8|
3,2,2.2|
3,4,2.7|
4,0,0.63|
4,1,5.6|
4,2,5.9|
4,3,1|
];
constraint_x11_x8=[
0,1,4.8|
0,2,2.7|
0,3,5.3|
0,4,1.1|
1,0,7.8|
1,2,3.1|
1,3,2.9|
1,4,7.6|
2,0,3.8|
2,1,4.5|
2,3,7.9|
2,4,2.8|
3,0,3.4|
3,1,7|
3,2,5.6|
3,4,9.9|
4,0,0.86|
4,1,8.5|
4,2,0.55|
4,3,1.4|
];
constraint_x12_x1=[
0,1,7.9|
0,2,5.9|
0,3,8.9|
0,4,3.3|
1,0,8.6|
1,2,0.16|
1,3,0.97|
1,4,9.3|
2,0,3.6|
2,1,0.13|
2,3,5.9|
2,4,5.9|
3,0,0.33|
3,1,4.9|
3,2,5.8|
3,4,4|
4,0,4.2|
4,1,5.7|
4,2,5.1|
4,3,8|
];
constraint_x12_x2=[
0,1,3.7|
0,2,6.4|
0,3,6|
0,4,4.7|
1,0,6.2|
1,2,7.6|
1,3,2.4|
1,4,0.96|
2,0,1.4|
2,1,9.5|
2,3,1.8|
2,4,9.3|
3,0,0.076|
3,1,2|
3,2,0.14|
3,4,5.4|
4,0,5.7|
4,1,1.5|
4,2,2.9|
4,3,7.2|
];
constraint_x12_x3=[
0,1,0.99|
0,2,8.7|
0,3,9.3|
0,4,9|
1,0,4.2|
1,2,7.6|
1,3,3.3|
1,4,7.9|
2,0,5.6|
2,1,9.6|
2,3,0.51|
2,4,6.1|
3,0,1.5|
3,1,3.5|
3,2,7.6|
3,4,9|
4,0,5.6|
4,1,2.2|
4,2,4.3|
4,3,8.2|
];
constraint_x12_x4=[
0,1,1.9|
0,2,9.9|
0,3,7.8|
0,4,6.8|
1,0,8.8|
1,2,3.1|
1,3,4.4|
1,4,2.1|
2,0,3.8|
2,1,5.3|
2,3,0.88|
2,4,4.5|
3,0,4.7|
3,1,1.5|
3,2,5.7|
3,4,3.2|
4,0,2.5|
4,1,1.1|
4,2,6.8|
4,3,0.03|
];
constraint_x12_x6=[
0,1,2.7|
0,2,7.6|
0,3,3|
0,4,1.5|
1,0,3.4|
1,2,0.18|
1,3,3.5|
1,4,4.2|
2,0,0.32|
2,1,9.6|
2,3,1.4|
2,4,0.88|
3,0,3.3|
3,1,8.4|
3,2,8.5|
3,4,4.6|
4,0,5|
4,1,3.4|
4,2,3.7|
4,3,7.2|
];
constraint_x12_x7=[
0,1,5.2|
0,2,5.1|
0,3,2.2|
0,4,6.3|
1,0,5.4|
1,2,2.8|
1,3,2.8|
1,4,8.6|
2,0,6.7|
2,1,7.1|
2,3,5.8|
2,4,4.3|
3,0,5.3|
3,1,8.5|
3,2,3.9|
3,4,8.6|
4,0,1.9|
4,1,2.2|
4,2,5.8|
4,3,9.4|
];
constraint_x12_x9=[
0,1,0.86|
0,2,4.5|
0,3,5.7|
0,4,4.2|
1,0,7.9|
1,2,4.9|
1,3,5.9|
1,4,8.6|
2,0,6.9|
2,1,3|
2,3,2.9|
2,4,6.6|
3,0,1.1|
3,1,6.2|
3,2,3|
3,4,9.5|
4,0,8|
4,1,5.9|
4,2,0.51|
4,3,4.7|
];
constraint_x12_x10=[
0,1,0.22|
0,2,9.9|
0,3,9.8|
0,4,3.5|
1,0,3.3|
1,2,8.8|
1,3,8.9|
1,4,8.2|
2,0,3.1|
2,1,5.4|
2,3,7.9|
2,4,6.7|
3,0,2.6|
3,1,0.9|
3,2,3.2|
3,4,7.2|
4,0,5.3|
4,1,6.5|
4,2,1.9|
4,3,7.6|
];
constraint_x12_x11=[
0,1,7.8|
0,2,1.7|
0,3,2.5|
0,4,6.3|
1,0,9.2|
1,2,8.5|
1,3,1.8|
1,4,8.2|
2,0,9|
2,1,0.25|
2,3,4.1|
2,4,6|
3,0,5.1|
3,1,0.99|
3,2,9.3|
3,4,1.3|
4,0,0.51|
4,1,0.18|
4,2,0.61|
4,3,8.2|
];
constraint_x13_x1=[
0,1,5.9|
0,2,8.7|
0,3,5.5|
0,4,5.2|
1,0,6.8|
1,2,7.8|
1,3,3.4|
1,4,2.5|
2,0,4.7|
2,1,5.9|
2,3,2.2|
2,4,6.2|
3,0,2.5|
3,1,0.075|
3,2,0.1|
3,4,5|
4,0,6.1|
4,1,5|
4,2,6.3|
4,3,6.4|
];
constraint_x13_x2=[
0,1,8.6|
0,2,1.6|
0,3,1.3|
0,4,3|
1,0,5.9|
1,2,8.5|
1,3,9.7|
1,4,3.6|
2,0,4.4|
2,1,4.3|
2,3,0.13|
2,4,1.8|
3,0,7.6|
3,1,8.2|
3,2,9.2|
3,4,0.26|
4,0,7.5|
4,1,1.2|
4,2,8.7|
4,3,3.4|
];
constraint_x13_x4=[
0,1,9.6|
0,2,1.4|
0,3,0.029|
0,4,7.4|
1,0,5.7|
1,2,7.4|
1,3,0.49|
1,4,1.4|
2,0,3.2|
2,1,6.6|
2,3,0.95|
2,4,6.3|
3,0,3.7|
3,1,0.55|
3,2,9.4|
3,4,4.5|
4,0,6.6|
4,1,6.5|
4,2,1.3|
4,3,3.1|
];
constraint_x13_x6=[
0,1,4.6|
0,2,1.4|
0,3,2.1|
0,4,2.1|
1,0,7.8|
1,2,5.1|
1,3,0.64|
1,4,3.4|
2,0,7.7|
2,1,8.9|
2,3,0.19|
2,4,5.2|
3,0,1.3|
3,1,1.9|
3,2,8.5|
3,4,3.7|
4,0,4.1|
4,1,6.3|
4,2,2.2|
4,3,4.1|
];
constraint_x13_x10=[
0,1,3.8|
0,2,9.1|
0,3,5.2|
0,4,4.8|
1,0,2.6|
1,2,5|
1,3,0.79|
1,4,7.9|
2,0,3.6|
2,1,6.9|
2,3,6.6|
2,4,2.8|
3,0,3.7|
3,1,2.8|
3,2,2.8|
3,4,5.7|
4,0,3.9|
4,1,1.4|
4,2,2.4|
4,3,4.6|
];
constraint_x13_x11=[
0,1,0.36|
0,2,9.7|
0,3,5.4|
0,4,6|
1,0,7.1|
1,2,6|
1,3,5.5|
1,4,0.53|
2,0,8.6|
2,1,5.7|
2,3,7.3|
2,4,5.4|
3,0,7.6|
3,1,9.8|
3,2,0.018|
3,4,2.3|
4,0,3|
4,1,8.9|
4,2,0.59|
4,3,5.4|
];
constraint_x13_x12=[
0,1,8.2|
0,2,2.5|
0,3,5.7|
0,4,4.4|
1,0,6|
1,2,8|
1,3,7.5|
1,4,4.3|
2,0,6.4|
2,1,9.6|
2,3,2.2|
2,4,9.5|
3,0,1.5|
3,1,7.8|
3,2,5.9|
3,4,0.99|
4,0,5.4|
4,1,4.1|
4,2,9.6|
4,3,0.81|
];
constraint_x14_x1=[
0,1,9.8|
0,2,2.5|
0,3,6.3|
0,4,0.61|
1,0,0.67|
1,2,0.47|
1,3,0.36|
1,4,8.2|
2,0,9.7|
2,1,5.5|
2,3,2.9|
2,4,0.13|
3,0,8.6|
3,1,2|
3,2,5.5|
3,4,2.4|
4,0,8.9|
4,1,7.7|
4,2,4.3|
4,3,2.6|
];
constraint_x14_x2=[
0,1,2.6|
0,2,8|
0,3,7.4|
0,4,6.5|
1,0,1.7|
1,2,9.6|
1,3,6.8|
1,4,9.6|
2,0,7.8|
2,1,4.6|
2,3,6.7|
2,4,0.46|
3,0,6|
3,1,0.068|
3,2,0.61|
3,4,8|
4,0,1.1|
4,1,6.7|
4,2,7.6|
4,3,3.7|
];
constraint_x14_x3=[
0,1,0.56|
0,2,3.2|
0,3,7|
0,4,9.8|
1,0,3|
1,2,3.4|
1,3,8.7|
1,4,3.4|
2,0,7.3|
2,1,5.7|
2,3,2.6|
2,4,4.6|
3,0,6.7|
3,1,9.1|
3,2,7.1|
3,4,7.9|
4,0,5.5|
4,1,6.6|
4,2,3.6|
4,3,8.6|
];
constraint_x14_x4=[
0,1,0.071|
0,2,2.2|
0,3,8|
0,4,5.9|
1,0,9.3|
1,2,0.21|
1,3,4.7|
1,4,3.3|
2,0,7.7|
2,1,6.4|
2,3,0.95|
2,4,3.6|
3,0,6.5|
3,1,8.3|
3,2,8.2|
3,4,8|
4,0,4.2|
4,1,7.5|
4,2,6.8|
4,3,8.9|
];
constraint_x14_x5=[
0,1,4.6|
0,2,7.3|
0,3,3|
0,4,4.4|
1,0,3.8|
1,2,2.7|
1,3,5.2|
1,4,3.8|
2,0,6.5|
2,1,3.4|
2,3,5.1|
2,4,8.2|
3,0,1.1|
3,1,9.7|
3,2,3.3|
3,4,2|
4,0,0.62|
4,1,0.78|
4,2,1.6|
4,3,4.5|
];
constraint_x14_x7=[
0,1,5.9|
0,2,7|
0,3,5.6|
0,4,1.2|
1,0,1.3|
1,2,3.7|
1,3,5.9|
1,4,3.6|
2,0,7.4|
2,1,6|
2,3,6.5|
2,4,0.021|
3,0,5.6|
3,1,5.4|
3,2,3.3|
3,4,1|
4,0,0.85|
4,1,7.3|
4,2,3.8|
4,3,7.7|
];
constraint_x14_x8=[
0,1,2.7|
0,2,1.8|
0,3,4.2|
0,4,2.3|
1,0,5.1|
1,2,6.4|
1,3,8.9|
1,4,5.4|
2,0,4.2|
2,1,9.8|
2,3,3.4|
2,4,7.1|
3,0,3.1|
3,1,5.8|
3,2,8.7|
3,4,1.9|
4,0,1.3|
4,1,6.3|
4,2,6.1|
4,3,0.06|
];
constraint_x14_x12=[
0,1,4.4|
0,2,4|
0,3,0.61|
0,4,1.5|
1,0,0.76|
1,2,8.9|
1,3,3.8|
1,4,2.6|
2,0,8.5|
2,1,4.3|
2,3,3|
2,4,6.8|
3,0,8.9|
3,1,2.7|
3,2,2.5|
3,4,2.2|
4,0,7.5|
4,1,4.4|
4,2,0.19|
4,3,5.7|
];
constraint_x1_y1=[
0,0,3.5|
0,1,3.2|
0,2,9.9|
0,3,2.2|
0,4,3.8|
1,0,9.9|
1,1,2.2|
1,2,3.3|
1,3,2.6|
1,4,9.1|
2,0,5.5|
2,1,9.3|
2,2,2.9|
2,3,9.3|
2,4,2.2|
3,0,0.36|
3,1,2.6|
3,2,0.23|
3,3,1|
3,4,6.5|
4,0,9.5|
4,1,0.77|
4,2,5|
4,3,2.1|
4,4,7.6|
];
constraint_x2_y2=[
0,0,8.5|
0,1,2.4|
0,2,5.7|
0,3,4.8|
0,4,6.8|
1,0,7.2|
1,1,6.3|
1,2,2.2|
1,3,5.3|
1,4,8.6|
2,0,9.8|
2,1,5.4|
2,2,1.5|
2,3,6|
2,4,8.6|
3,0,8.8|
3,1,6.8|
3,2,0.43|
3,3,8.8|
3,4,7.1|
4,0,9.5|
4,1,2.8|
4,2,6.9|
4,3,8.5|
4,4,7|
];
constraint_x3_y3=[
0,0,9.2|
0,1,1.4|
0,2,6.3|
0,3,8.9|
0,4,4.1|
1,0,5.3|
1,1,9.9|
1,2,10|
1,3,9.9|
1,4,2|
2,0,0.15|
2,1,8.3|
2,2,6.8|
2,3,5.6|
2,4,5.9|
3,0,9.1|
3,1,0.43|
3,2,9.4|
3,3,2.3|
3,4,7.7|
4,0,5.8|
4,1,7.5|
4,2,2.6|
4,3,6.2|
4,4,7.8|
];
constraint_x4_y4=[
0,0,8.1|
0,1,8.4|
0,2,1.4|
0,3,5.3|
0,4,0.54|
1,0,6.8|
1,1,9.5|
1,2,4.2|
1,3,8.2|
1,4,9.7|
2,0,1.8|
2,1,7.3|
2,2,9.1|
2,3,3.8|
2,4,1.2|
3,0,0.64|
3,1,7.5|
3,2,5.6|
3,3,9.7|
3,4,2.9|
4,0,4|
4,1,0.7|
4,2,3.8|
4,3,6.7|
4,4,9.6|
];
constraint_x5_y5=[
0,0,2.6|
0,1,0.14|
0,2,7.1|
0,3,7.3|
0,4,2.5|
1,0,4.2|
1,1,5.4|
1,2,4.6|
1,3,5.7|
1,4,8|
2,0,0.92|
2,1,7.8|
2,2,4.8|
2,3,8.8|
2,4,3.2|
3,0,7.7|
3,1,1|
3,2,3.3|
3,3,7.4|
3,4,6.3|
4,0,8|
4,1,0.78|
4,2,0.61|
4,3,5.9|
4,4,6.2|
];
constraint_x6_y6=[
0,0,7.7|
0,1,6.2|
0,2,5.5|
0,3,3|
0,4,1.7|
1,0,9.8|
1,1,6.2|
1,2,2.1|
1,3,2.2|
1,4,6.6|
2,0,0.57|
2,1,6.8|
2,2,0.44|
2,3,1.2|
2,4,3.8|
3,0,10|
3,1,9.6|
3,2,6.9|
3,3,1.3|
3,4,4|
4,0,0.63|
4,1,7.6|
4,2,9.7|
4,3,2.4|
4,4,8.6|
];
constraint_x7_y7=[
0,0,9.1|
0,1,7.6|
0,2,6.6|
0,3,9.4|
0,4,1.5|
1,0,8.7|
1,1,1.5|
1,2,2.7|
1,3,5.2|
1,4,4.9|
2,0,7.5|
2,1,4.1|
2,2,7.8|
2,3,0.42|
2,4,9|
3,0,7.3|
3,1,6|
3,2,7.2|
3,3,6.6|
3,4,7.4|
4,0,7.2|
4,1,4|
4,2,0.46|
4,3,7|
4,4,1.3|
];
initial_distribution_y1=[0.16,0.39,0.17,0.088,0.19];
initial_distribution_y2=[0.11,0.29,0.27,0.19,0.14];
initial_distribution_y3=[0.054,0.23,0.0091,0.54,0.16];
initial_distribution_y4=[0.23,0.052,0.24,0.06,0.43];
initial_distribution_y5=[0.26,0.25,0.14,0.17,0.17];
initial_distribution_y6=[0.29,0.13,0.19,0.062,0.32];
initial_distribution_y7=[0.12,0.37,0.1,0.27,0.14];
transition_y1=[
0.12,0.33,0.18,0.03,0.34|
0.21,0.25,0.3,0.2,0.035|
0.18,0.29,0.074,0.18,0.28|
0.18,0.074,0.25,0.12,0.37|
0.24,0.29,0.16,0.0031,0.31|
];
transition_y2=[
0.25,0.098,0.19,0.21,0.26|
0.23,0.07,0.15,0.24,0.31|
0.32,0.079,0.099,0.28,0.22|
0.25,0.033,0.044,0.29,0.38|
0.22,0.27,0.057,0.21,0.24|
];
transition_y3=[
0.2,0.26,0.13,0.27,0.14|
0.17,0.28,0.2,0.089,0.26|
0.24,0.011,0.27,0.28,0.2|
0.31,0.25,0.17,0.13,0.14|
0.23,0.14,0.02,0.3,0.31|
];
transition_y4=[
0.031,0.24,0.22,0.2,0.3|
0.58,0.073,0.25,0.078,0.017|
0.18,0.25,0.28,0.0058,0.29|
0.51,0.24,0.13,0.05,0.067|
0.14,0.063,0.29,0.33,0.18|
];
transition_y5=[
0.36,0.09,0.018,0.28,0.25|
0.31,0.058,0.11,0.11,0.41|
0.29,0.23,0.18,0.25,0.051|
0.23,0.2,0.31,0.19,0.085|
0.095,0.0038,0.34,0.21,0.34|
];
transition_y6=[
0.36,0.15,0.23,0.18,0.077|
0.23,0.081,0.24,0.35,0.1|
0.018,0.41,0.47,0.0051,0.095|
0.13,0.31,0.41,0.12,0.031|
0.37,0.17,0.0089,0.32,0.13|
];
transition_y7=[
0.35,0.14,0.16,0.035,0.32|
0.12,0.19,0.53,0.071,0.082|
0.39,0.01,0.14,0.006,0.45|
0.17,0.21,0.22,0.18,0.22|
0.047,0.18,0.27,0.43,0.069|
];
